
Gurobi 6.5.1 (mac64) logging started Fri Jun 24 09:12:32 2016


Gurobi 6.5.1 (mac64) logging started Fri Jun 24 09:12:46 2016


Gurobi 6.5.1 (mac64) logging started Fri Jun 24 09:13:12 2016


Gurobi 6.5.1 (mac64) logging started Fri Jun 24 09:13:40 2016


Gurobi 6.5.1 (mac64) logging started Fri Jun 24 09:13:55 2016


Gurobi 6.5.1 (mac64) logging started Fri Jun 24 09:17:04 2016


Gurobi 6.5.1 (mac64) logging started Fri Jun 24 09:17:43 2016


Gurobi 6.5.1 (mac64) logging started Fri Jun 24 09:29:04 2016


Gurobi 6.5.1 (mac64) logging started Fri Jun 24 09:29:35 2016


Gurobi 6.5.1 (mac64) logging started Fri Jun 24 09:29:59 2016


Gurobi 6.5.1 (mac64) logging started Fri Jun 24 09:30:17 2016


Gurobi 6.5.1 (mac64) logging started Fri Jun 24 11:01:05 2016


Gurobi 6.5.1 (mac64) logging started Fri Jun 24 11:01:21 2016


Gurobi 6.5.1 (mac64) logging started Fri Jun 24 11:02:04 2016


Gurobi 6.5.1 (mac64) logging started Fri Jun 24 11:02:20 2016


Gurobi 6.5.1 (mac64) logging started Fri Jun 24 11:02:42 2016


Gurobi 6.5.1 (mac64) logging started Fri Jun 24 11:03:16 2016


Gurobi 6.5.1 (mac64) logging started Fri Jun 24 11:03:40 2016


Gurobi 6.5.1 (mac64) logging started Fri Jun 24 11:03:54 2016


Gurobi 6.5.1 (mac64) logging started Fri Jun 24 11:04:11 2016


Gurobi 6.5.1 (mac64) logging started Fri Jun 24 11:04:20 2016


Gurobi 6.5.1 (mac64) logging started Fri Jun 24 11:06:39 2016


Gurobi 6.5.1 (mac64) logging started Fri Jun 24 11:08:34 2016


Gurobi 6.5.1 (mac64) logging started Fri Jun 24 11:09:15 2016


Gurobi 6.5.1 (mac64) logging started Fri Jun 24 11:18:46 2016


Gurobi 6.5.1 (mac64) logging started Fri Jun 24 11:19:08 2016


Gurobi 6.5.1 (mac64) logging started Fri Jun 24 11:20:32 2016


Gurobi 6.5.1 (mac64) logging started Fri Jun 24 11:22:12 2016


Gurobi 6.5.1 (mac64) logging started Fri Jun 24 11:22:44 2016


Gurobi 6.5.1 (mac64) logging started Fri Jun 24 11:23:23 2016


Gurobi 6.5.1 (mac64) logging started Fri Jun 24 11:24:54 2016


Gurobi 6.5.1 (mac64) logging started Fri Jun 24 11:25:14 2016


Gurobi 6.5.1 (mac64) logging started Fri Jun 24 11:26:18 2016


Gurobi 6.5.1 (mac64) logging started Fri Jun 24 11:26:27 2016


Gurobi 6.5.1 (mac64) logging started Fri Jun 24 11:26:48 2016


Gurobi 6.5.1 (mac64) logging started Fri Jun 24 11:27:27 2016


Gurobi 6.5.1 (mac64) logging started Fri Jun 24 11:27:38 2016


Gurobi 6.5.1 (mac64) logging started Fri Jun 24 11:27:56 2016


Gurobi 6.5.1 (mac64) logging started Fri Jun 24 11:28:03 2016


Gurobi 6.5.1 (mac64) logging started Fri Jun 24 11:28:54 2016


Gurobi 6.5.1 (mac64) logging started Fri Jun 24 11:37:00 2016


Gurobi 6.5.1 (mac64) logging started Fri Jun 24 11:39:00 2016


Gurobi 6.5.1 (mac64) logging started Fri Jun 24 11:39:37 2016


Gurobi 6.5.1 (mac64) logging started Fri Jun 24 11:40:24 2016


Gurobi 6.5.1 (mac64) logging started Fri Jun 24 11:40:52 2016


Gurobi 6.5.1 (mac64) logging started Fri Jun 24 13:30:29 2016


Gurobi 6.5.1 (mac64) logging started Fri Jun 24 13:31:05 2016


Gurobi 6.5.1 (mac64) logging started Fri Jun 24 13:31:20 2016


Gurobi 6.5.1 (mac64) logging started Fri Jun 24 13:39:55 2016


Gurobi 6.5.1 (mac64) logging started Fri Jun 24 13:40:10 2016


Gurobi 6.5.1 (mac64) logging started Fri Jun 24 13:41:24 2016


Gurobi 6.5.1 (mac64) logging started Fri Jun 24 13:42:00 2016


Gurobi 6.5.1 (mac64) logging started Fri Jun 24 13:42:17 2016


Gurobi 6.5.1 (mac64) logging started Fri Jun 24 13:43:11 2016


Gurobi 6.5.1 (mac64) logging started Fri Jun 24 13:44:35 2016


Gurobi 6.5.1 (mac64) logging started Fri Jun 24 13:44:46 2016


Gurobi 6.5.1 (mac64) logging started Fri Jun 24 13:44:55 2016


Gurobi 6.5.1 (mac64) logging started Fri Jun 24 13:45:03 2016


Gurobi 6.5.1 (mac64) logging started Fri Jun 24 13:46:02 2016


Gurobi 6.5.1 (mac64) logging started Fri Jun 24 13:46:07 2016


Gurobi 6.5.1 (mac64) logging started Fri Jun 24 13:47:01 2016


Gurobi 6.5.1 (mac64) logging started Fri Jun 24 13:47:21 2016


Gurobi 6.5.1 (mac64) logging started Fri Jun 24 13:47:45 2016


Gurobi 6.5.1 (mac64) logging started Fri Jun 24 13:48:02 2016


Gurobi 6.5.1 (mac64) logging started Fri Jun 24 13:48:16 2016


Gurobi 6.5.1 (mac64) logging started Fri Jun 24 13:48:22 2016


Gurobi 6.5.1 (mac64) logging started Fri Jun 24 13:48:46 2016


Gurobi 6.5.1 (mac64) logging started Fri Jun 24 13:48:55 2016


Gurobi 6.5.1 (mac64) logging started Fri Jun 24 13:49:01 2016


Gurobi 6.5.1 (mac64) logging started Fri Jun 24 13:49:07 2016


Gurobi 6.5.1 (mac64) logging started Fri Jun 24 13:49:18 2016


Gurobi 6.5.1 (mac64) logging started Fri Jun 24 13:49:23 2016


Gurobi 6.5.1 (mac64) logging started Fri Jun 24 13:49:31 2016


Gurobi 6.5.1 (mac64) logging started Fri Jun 24 13:49:54 2016


Gurobi 6.5.1 (mac64) logging started Fri Jun 24 13:49:59 2016


Gurobi 6.5.1 (mac64) logging started Fri Jun 24 13:50:06 2016


Gurobi 6.5.1 (mac64) logging started Fri Jun 24 13:50:11 2016


Gurobi 6.5.1 (mac64) logging started Fri Jun 24 13:50:26 2016


Gurobi 6.5.1 (mac64) logging started Fri Jun 24 13:52:27 2016


Gurobi 6.5.1 (mac64) logging started Fri Jun 24 13:52:37 2016


Gurobi 6.5.1 (mac64) logging started Fri Jun 24 13:53:00 2016


Gurobi 6.5.1 (mac64) logging started Fri Jun 24 13:55:14 2016


Gurobi 6.5.1 (mac64) logging started Fri Jun 24 13:56:49 2016


Gurobi 6.5.1 (mac64) logging started Fri Jun 24 13:57:13 2016


Gurobi 6.5.1 (mac64) logging started Fri Jun 24 13:58:23 2016


Gurobi 6.5.1 (mac64) logging started Fri Jun 24 14:00:31 2016


Gurobi 6.5.1 (mac64) logging started Fri Jun 24 14:12:13 2016


Gurobi 6.5.1 (mac64) logging started Fri Jun 24 14:12:59 2016


Gurobi 6.5.1 (mac64) logging started Fri Jun 24 14:13:56 2016


Gurobi 6.5.1 (mac64) logging started Fri Jun 24 14:21:27 2016


Gurobi 6.5.1 (mac64) logging started Fri Jun 24 14:21:37 2016


Gurobi 6.5.1 (mac64) logging started Fri Jun 24 14:21:48 2016


Gurobi 6.5.1 (mac64) logging started Fri Jun 24 14:21:57 2016


Gurobi 6.5.1 (mac64) logging started Fri Jun 24 14:22:36 2016


Gurobi 6.5.1 (mac64) logging started Fri Jun 24 14:23:00 2016


Gurobi 6.5.1 (mac64) logging started Fri Jun 24 14:23:09 2016


Gurobi 6.5.1 (mac64) logging started Fri Jun 24 14:24:30 2016


Gurobi 6.5.1 (mac64) logging started Fri Jun 24 14:27:00 2016


Gurobi 6.5.1 (mac64) logging started Fri Jun 24 14:27:48 2016


Gurobi 6.5.1 (mac64) logging started Fri Jun 24 14:28:28 2016


Gurobi 6.5.1 (mac64) logging started Fri Jun 24 14:29:31 2016


Gurobi 6.5.1 (mac64) logging started Fri Jun 24 14:30:03 2016


Gurobi 6.5.1 (mac64) logging started Fri Jun 24 15:25:57 2016


Gurobi 6.5.1 (mac64) logging started Fri Jun 24 15:27:19 2016


Gurobi 6.5.1 (mac64) logging started Fri Jun 24 15:32:35 2016


Gurobi 6.5.1 (mac64) logging started Fri Jun 24 15:35:47 2016


Gurobi 6.5.1 (mac64) logging started Fri Jun 24 15:36:53 2016


Gurobi 6.5.1 (mac64) logging started Fri Jun 24 15:39:22 2016


Gurobi 6.5.1 (mac64) logging started Fri Jun 24 15:40:51 2016


Gurobi 6.5.1 (mac64) logging started Fri Jun 24 15:40:57 2016


Gurobi 6.5.1 (mac64) logging started Fri Jun 24 15:41:14 2016


Gurobi 6.5.1 (mac64) logging started Fri Jun 24 15:42:18 2016


Gurobi 6.5.1 (mac64) logging started Fri Jun 24 15:48:31 2016


Gurobi 6.5.1 (mac64) logging started Mon Jun 27 09:37:35 2016


Gurobi 6.5.1 (mac64) logging started Mon Jun 27 09:39:00 2016


Gurobi 6.5.1 (mac64) logging started Mon Jun 27 09:39:10 2016


Gurobi 6.5.1 (mac64) logging started Mon Jun 27 09:40:03 2016


Gurobi 6.5.1 (mac64) logging started Mon Jun 27 09:40:08 2016


Gurobi 6.5.1 (mac64) logging started Mon Jun 27 09:47:35 2016


Gurobi 6.5.1 (mac64) logging started Mon Jun 27 09:56:39 2016


Gurobi 6.5.1 (mac64) logging started Mon Jun 27 09:58:12 2016


Gurobi 6.5.1 (mac64) logging started Mon Jun 27 09:58:36 2016


Gurobi 6.5.1 (mac64) logging started Mon Jun 27 09:59:09 2016


Gurobi 6.5.1 (mac64) logging started Mon Jun 27 10:02:06 2016


Gurobi 6.5.1 (mac64) logging started Mon Jun 27 10:02:34 2016


Gurobi 6.5.1 (mac64) logging started Mon Jun 27 10:03:02 2016


Gurobi 6.5.1 (mac64) logging started Mon Jun 27 10:03:19 2016


Gurobi 6.5.1 (mac64) logging started Mon Jun 27 10:04:00 2016


Gurobi 6.5.1 (mac64) logging started Mon Jun 27 10:45:49 2016


Gurobi 6.5.1 (mac64) logging started Mon Jun 27 10:47:38 2016


Gurobi 6.5.1 (mac64) logging started Mon Jun 27 10:49:20 2016


Gurobi 6.5.1 (mac64) logging started Mon Jun 27 10:51:03 2016


Gurobi 6.5.1 (mac64) logging started Mon Jun 27 10:51:21 2016


Gurobi 6.5.1 (mac64) logging started Mon Jun 27 10:52:36 2016


Gurobi 6.5.1 (mac64) logging started Mon Jun 27 10:52:50 2016


Gurobi 6.5.1 (mac64) logging started Mon Jun 27 11:04:31 2016


Gurobi 6.5.1 (mac64) logging started Mon Jun 27 11:04:44 2016


Gurobi 6.5.1 (mac64) logging started Mon Jun 27 11:05:19 2016


Gurobi 6.5.1 (mac64) logging started Mon Jun 27 11:05:29 2016


Gurobi 6.5.1 (mac64) logging started Mon Jun 27 11:06:06 2016


Gurobi 6.5.1 (mac64) logging started Mon Jun 27 11:06:17 2016


Gurobi 6.5.1 (mac64) logging started Mon Jun 27 11:06:23 2016


Gurobi 6.5.1 (mac64) logging started Mon Jun 27 11:14:34 2016


Gurobi 6.5.1 (mac64) logging started Mon Jun 27 11:26:46 2016


Gurobi 6.5.1 (mac64) logging started Mon Jun 27 11:29:49 2016


Gurobi 6.5.1 (mac64) logging started Mon Jun 27 11:30:19 2016


Gurobi 6.5.1 (mac64) logging started Mon Jun 27 11:30:33 2016


Gurobi 6.5.1 (mac64) logging started Mon Jun 27 11:30:39 2016


Gurobi 6.5.1 (mac64) logging started Mon Jun 27 11:30:50 2016


Gurobi 6.5.1 (mac64) logging started Mon Jun 27 11:31:51 2016


Gurobi 6.5.1 (mac64) logging started Mon Jun 27 13:13:22 2016


Gurobi 6.5.1 (mac64) logging started Mon Jun 27 13:13:59 2016


Gurobi 6.5.1 (mac64) logging started Mon Jun 27 13:14:36 2016


Gurobi 6.5.1 (mac64) logging started Mon Jun 27 13:25:51 2016


Gurobi 6.5.1 (mac64) logging started Mon Jun 27 13:28:16 2016


Gurobi 6.5.1 (mac64) logging started Mon Jun 27 13:31:29 2016


Gurobi 6.5.1 (mac64) logging started Mon Jun 27 13:32:45 2016


Gurobi 6.5.1 (mac64) logging started Mon Jun 27 13:32:54 2016


Gurobi 6.5.1 (mac64) logging started Mon Jun 27 13:42:50 2016


Gurobi 6.5.1 (mac64) logging started Mon Jun 27 13:48:36 2016


Gurobi 6.5.1 (mac64) logging started Mon Jun 27 13:48:42 2016


Gurobi 6.5.1 (mac64) logging started Mon Jun 27 14:09:15 2016


Gurobi 6.5.1 (mac64) logging started Mon Jun 27 14:09:32 2016


Gurobi 6.5.1 (mac64) logging started Mon Jun 27 14:09:51 2016


Gurobi 6.5.1 (mac64) logging started Mon Jun 27 14:09:57 2016


Gurobi 6.5.1 (mac64) logging started Mon Jun 27 14:10:19 2016


Gurobi 6.5.1 (mac64) logging started Mon Jun 27 14:10:57 2016


Gurobi 6.5.1 (mac64) logging started Mon Jun 27 14:11:31 2016


Gurobi 6.5.1 (mac64) logging started Mon Jun 27 14:11:37 2016


Gurobi 6.5.1 (mac64) logging started Mon Jun 27 14:54:52 2016


Gurobi 6.5.1 (mac64) logging started Mon Jun 27 15:02:33 2016


Gurobi 6.5.1 (mac64) logging started Mon Jun 27 15:02:50 2016


Gurobi 6.5.1 (mac64) logging started Mon Jun 27 15:02:58 2016


Gurobi 6.5.1 (mac64) logging started Mon Jun 27 15:20:46 2016


Gurobi 6.5.1 (mac64) logging started Mon Jun 27 15:21:08 2016


Gurobi 6.5.1 (mac64) logging started Mon Jun 27 15:21:18 2016


Gurobi 6.5.1 (mac64) logging started Mon Jun 27 15:21:51 2016


Gurobi 6.5.1 (mac64) logging started Mon Jun 27 15:22:12 2016


Gurobi 6.5.1 (mac64) logging started Mon Jun 27 15:22:22 2016


Gurobi 6.5.1 (mac64) logging started Mon Jun 27 15:42:38 2016


Gurobi 6.5.1 (mac64) logging started Mon Jun 27 15:43:02 2016


Gurobi 6.5.1 (mac64) logging started Mon Jun 27 15:44:04 2016


Gurobi 6.5.1 (mac64) logging started Mon Jun 27 15:44:17 2016


Gurobi 6.5.1 (mac64) logging started Mon Jun 27 15:45:08 2016


Gurobi 6.5.1 (mac64) logging started Mon Jun 27 15:45:15 2016


Gurobi 6.5.1 (mac64) logging started Mon Jun 27 15:46:38 2016


Gurobi 6.5.1 (mac64) logging started Mon Jun 27 15:46:59 2016


Gurobi 6.5.1 (mac64) logging started Mon Jun 27 15:48:20 2016


Gurobi 6.5.1 (mac64) logging started Mon Jun 27 15:48:41 2016


Gurobi 6.5.1 (mac64) logging started Mon Jun 27 15:49:04 2016


Gurobi 6.5.1 (mac64) logging started Mon Jun 27 15:49:12 2016


Gurobi 6.5.1 (mac64) logging started Mon Jun 27 15:49:17 2016


Gurobi 6.5.1 (mac64) logging started Mon Jun 27 15:50:42 2016


Gurobi 6.5.1 (mac64) logging started Mon Jun 27 15:51:12 2016


Gurobi 6.5.1 (mac64) logging started Tue Jun 28 10:34:48 2016


Gurobi 6.5.1 (mac64) logging started Tue Jun 28 10:35:49 2016


Gurobi 6.5.1 (mac64) logging started Tue Jun 28 10:47:23 2016


Gurobi 6.5.1 (mac64) logging started Tue Jun 28 10:47:34 2016


Gurobi 6.5.1 (mac64) logging started Tue Jun 28 10:47:56 2016


Gurobi 6.5.1 (mac64) logging started Tue Jun 28 10:48:18 2016


Gurobi 6.5.1 (mac64) logging started Tue Jun 28 10:48:27 2016


Gurobi 6.5.1 (mac64) logging started Tue Jun 28 10:48:52 2016


Gurobi 6.5.1 (mac64) logging started Tue Jun 28 10:49:08 2016


Gurobi 6.5.1 (mac64) logging started Tue Jun 28 10:49:41 2016


Gurobi 6.5.1 (mac64) logging started Tue Jun 28 10:50:01 2016


Gurobi 6.5.1 (mac64) logging started Tue Jun 28 10:51:15 2016


Gurobi 6.5.1 (mac64) logging started Tue Jun 28 10:52:01 2016


Gurobi 6.5.1 (mac64) logging started Tue Jun 28 10:52:25 2016


Gurobi 6.5.1 (mac64) logging started Tue Jun 28 10:52:51 2016


Gurobi 6.5.1 (mac64) logging started Tue Jun 28 10:54:11 2016


Gurobi 6.5.1 (mac64) logging started Tue Jun 28 10:54:33 2016


Gurobi 6.5.1 (mac64) logging started Tue Jun 28 10:55:00 2016


Gurobi 6.5.1 (mac64) logging started Tue Jun 28 10:59:39 2016


Gurobi 6.5.1 (mac64) logging started Tue Jun 28 11:00:07 2016


Gurobi 6.5.1 (mac64) logging started Tue Jun 28 11:00:50 2016


Gurobi 6.5.1 (mac64) logging started Tue Jun 28 11:08:11 2016


Gurobi 6.5.1 (mac64) logging started Tue Jun 28 11:08:13 2016


Gurobi 6.5.1 (mac64) logging started Tue Jun 28 13:38:25 2016


Gurobi 6.5.1 (mac64) logging started Tue Jun 28 13:39:15 2016


Gurobi 6.5.1 (mac64) logging started Tue Jun 28 13:41:03 2016


Gurobi 6.5.1 (mac64) logging started Tue Jun 28 13:42:26 2016


Gurobi 6.5.1 (mac64) logging started Tue Jun 28 13:42:40 2016


Gurobi 6.5.1 (mac64) logging started Tue Jun 28 13:42:49 2016


Gurobi 6.5.1 (mac64) logging started Tue Jun 28 13:43:26 2016


Gurobi 6.5.1 (mac64) logging started Tue Jun 28 13:43:48 2016


Gurobi 6.5.1 (mac64) logging started Tue Jun 28 13:45:51 2016


Gurobi 6.5.1 (mac64) logging started Tue Jun 28 13:46:05 2016


Gurobi 6.5.1 (mac64) logging started Tue Jun 28 13:46:26 2016


Gurobi 6.5.1 (mac64) logging started Tue Jun 28 13:47:41 2016


Gurobi 6.5.1 (mac64) logging started Tue Jun 28 13:47:42 2016


Gurobi 6.5.1 (mac64) logging started Tue Jun 28 13:47:53 2016


Gurobi 6.5.1 (mac64) logging started Tue Jun 28 13:48:16 2016


Gurobi 6.5.1 (mac64) logging started Tue Jun 28 13:49:36 2016


Gurobi 6.5.1 (mac64) logging started Tue Jun 28 13:50:04 2016


Gurobi 6.5.1 (mac64) logging started Tue Jun 28 13:50:10 2016


Gurobi 6.5.1 (mac64) logging started Tue Jun 28 13:50:18 2016


Gurobi 6.5.1 (mac64) logging started Tue Jun 28 13:50:26 2016


Gurobi 6.5.1 (mac64) logging started Tue Jun 28 13:50:36 2016


Gurobi 6.5.1 (mac64) logging started Tue Jun 28 13:51:07 2016


Gurobi 6.5.1 (mac64) logging started Tue Jun 28 13:52:36 2016


Gurobi 6.5.1 (mac64) logging started Tue Jun 28 13:53:03 2016


Gurobi 6.5.1 (mac64) logging started Tue Jun 28 13:53:34 2016


Gurobi 6.5.1 (mac64) logging started Tue Jun 28 13:53:44 2016


Gurobi 6.5.1 (mac64) logging started Tue Jun 28 13:54:33 2016


Gurobi 6.5.1 (mac64) logging started Tue Jun 28 13:55:26 2016


Gurobi 6.5.1 (mac64) logging started Tue Jun 28 13:56:03 2016


Gurobi 6.5.1 (mac64) logging started Tue Jun 28 13:56:34 2016


Gurobi 6.5.1 (mac64) logging started Tue Jun 28 13:56:49 2016


Gurobi 6.5.1 (mac64) logging started Tue Jun 28 13:57:06 2016


Gurobi 6.5.1 (mac64) logging started Tue Jun 28 13:57:43 2016


Gurobi 6.5.1 (mac64) logging started Tue Jun 28 13:58:56 2016


Gurobi 6.5.1 (mac64) logging started Tue Jun 28 14:02:14 2016


Gurobi 6.5.1 (mac64) logging started Tue Jun 28 15:37:40 2016


Gurobi 6.5.1 (mac64) logging started Tue Jun 28 15:54:27 2016


Gurobi 6.5.1 (mac64) logging started Tue Jun 28 15:56:15 2016


Gurobi 6.5.1 (mac64) logging started Tue Jun 28 15:57:27 2016


Gurobi 6.5.1 (mac64) logging started Tue Jun 28 15:58:03 2016


Gurobi 6.5.1 (mac64) logging started Tue Jun 28 15:58:16 2016


Gurobi 6.5.1 (mac64) logging started Tue Jun 28 16:03:16 2016


Gurobi 6.5.1 (mac64) logging started Tue Jun 28 16:06:24 2016


Gurobi 6.5.1 (mac64) logging started Tue Jun 28 16:06:32 2016


Gurobi 6.5.1 (mac64) logging started Tue Jun 28 16:06:39 2016


Gurobi 6.5.1 (mac64) logging started Tue Jun 28 16:06:44 2016


Gurobi 6.5.1 (mac64) logging started Tue Jun 28 16:06:55 2016


Gurobi 6.5.1 (mac64) logging started Tue Jun 28 16:08:06 2016


Gurobi 6.5.1 (mac64) logging started Tue Jun 28 16:33:54 2016


Gurobi 6.5.1 (mac64) logging started Tue Jun 28 16:34:00 2016


Gurobi 6.5.1 (mac64) logging started Tue Jun 28 16:34:32 2016


Gurobi 6.5.1 (mac64) logging started Tue Jun 28 16:34:51 2016


Gurobi 6.5.1 (mac64) logging started Tue Jun 28 16:35:08 2016


Gurobi 6.5.1 (mac64) logging started Tue Jun 28 16:35:21 2016


Gurobi 6.5.1 (mac64) logging started Wed Jun 29 10:02:46 2016


Gurobi 6.5.1 (mac64) logging started Wed Jun 29 10:03:15 2016


Gurobi 6.5.1 (mac64) logging started Wed Jun 29 10:04:25 2016


Gurobi 6.5.1 (mac64) logging started Wed Jun 29 10:07:01 2016


Gurobi 6.5.1 (mac64) logging started Wed Jun 29 10:08:42 2016


Gurobi 6.5.1 (mac64) logging started Wed Jun 29 10:08:48 2016


Gurobi 6.5.1 (mac64) logging started Wed Jun 29 10:09:16 2016


Gurobi 6.5.1 (mac64) logging started Wed Jun 29 10:10:10 2016


Gurobi 6.5.1 (mac64) logging started Wed Jun 29 10:11:53 2016


Gurobi 6.5.1 (mac64) logging started Wed Jun 29 10:12:12 2016


Gurobi 6.5.1 (mac64) logging started Wed Jun 29 16:20:47 2016


Gurobi 6.5.1 (mac64) logging started Wed Jun 29 16:37:30 2016


Gurobi 6.5.1 (mac64) logging started Wed Jun 29 16:38:57 2016


Gurobi 6.5.1 (mac64) logging started Thu Jun 30 09:04:09 2016


Gurobi 6.5.1 (mac64) logging started Thu Jun 30 09:19:27 2016


Gurobi 6.5.1 (mac64) logging started Thu Jun 30 09:24:43 2016


Gurobi 6.5.1 (mac64) logging started Thu Jun 30 10:34:30 2016


Gurobi 6.5.1 (mac64) logging started Thu Jun 30 10:40:22 2016


Gurobi 6.5.1 (mac64) logging started Thu Jun 30 10:42:59 2016


Gurobi 6.5.1 (mac64) logging started Thu Jun 30 11:02:26 2016


Gurobi 6.5.1 (mac64) logging started Wed Jul  6 11:16:11 2016


Gurobi 6.5.1 (mac64) logging started Wed Jul  6 13:10:45 2016


Gurobi 6.5.1 (mac64) logging started Wed Jul  6 13:11:33 2016


Gurobi 6.5.1 (mac64) logging started Wed Jul  6 13:22:21 2016


Gurobi 6.5.1 (mac64) logging started Wed Jul  6 13:49:50 2016


Gurobi 6.5.1 (mac64) logging started Wed Jul  6 15:50:10 2016


Gurobi 6.5.1 (mac64) logging started Thu Jul  7 11:31:58 2016


Gurobi 6.5.1 (mac64) logging started Thu Jul  7 11:33:34 2016


Gurobi 6.5.1 (mac64) logging started Thu Jul  7 11:35:38 2016


Gurobi 6.5.1 (mac64) logging started Thu Jul  7 14:15:01 2016


Gurobi 6.5.1 (mac64) logging started Thu Jul  7 14:21:57 2016


Gurobi 6.5.1 (mac64) logging started Thu Jul  7 14:23:08 2016


Gurobi 6.5.1 (mac64) logging started Thu Jul  7 14:54:03 2016


Gurobi 6.5.1 (mac64) logging started Thu Jul  7 14:56:17 2016


Gurobi 6.5.1 (mac64) logging started Fri Jul  8 08:52:56 2016


Gurobi 6.5.1 (mac64) logging started Fri Jul  8 09:14:21 2016


Gurobi 6.5.1 (mac64) logging started Fri Jul  8 13:58:49 2016


Gurobi 6.5.1 (mac64) logging started Fri Jul  8 14:03:26 2016


Gurobi 6.5.1 (mac64) logging started Fri Jul  8 14:03:49 2016


Gurobi 6.5.1 (mac64) logging started Fri Jul  8 14:04:20 2016


Gurobi 6.5.1 (mac64) logging started Fri Jul  8 14:04:38 2016


Gurobi 6.5.1 (mac64) logging started Fri Jul  8 14:05:01 2016


Gurobi 6.5.1 (mac64) logging started Fri Jul  8 14:05:48 2016


Gurobi 6.5.1 (mac64) logging started Fri Jul  8 14:06:37 2016


Gurobi 6.5.1 (mac64) logging started Fri Jul  8 14:07:08 2016


Gurobi 6.5.1 (mac64) logging started Fri Jul  8 14:07:14 2016


Gurobi 6.5.1 (mac64) logging started Fri Jul  8 14:38:21 2016


Gurobi 6.5.1 (mac64) logging started Fri Jul  8 14:38:53 2016


Gurobi 6.5.1 (mac64) logging started Fri Jul  8 14:42:16 2016


Gurobi 6.5.1 (mac64) logging started Fri Jul  8 14:49:43 2016


Gurobi 6.5.1 (mac64) logging started Fri Jul  8 14:52:47 2016


Gurobi 6.5.1 (mac64) logging started Fri Jul  8 15:12:56 2016


Gurobi 6.5.1 (mac64) logging started Fri Jul  8 15:17:34 2016


Gurobi 6.5.1 (mac64) logging started Fri Jul  8 15:45:10 2016


Gurobi 6.5.1 (mac64) logging started Fri Jul  8 15:52:19 2016


Gurobi 6.5.1 (mac64) logging started Mon Jul 11 08:51:24 2016


Gurobi 6.5.1 (mac64) logging started Mon Jul 11 09:08:18 2016


Gurobi 6.5.1 (mac64) logging started Mon Jul 11 09:25:10 2016


Gurobi 6.5.1 (mac64) logging started Mon Jul 11 09:39:01 2016


Gurobi 6.5.1 (mac64) logging started Mon Jul 11 11:42:11 2016


Gurobi 6.5.1 (mac64) logging started Mon Jul 11 16:25:51 2016


Gurobi 6.5.1 (mac64) logging started Mon Jul 11 16:27:33 2016


Gurobi 6.5.1 (mac64) logging started Mon Jul 11 16:29:08 2016


Gurobi 6.5.1 (mac64) logging started Tue Jul 12 10:00:07 2016


Gurobi 6.5.1 (mac64) logging started Tue Jul 12 10:01:55 2016


Gurobi 6.5.1 (mac64) logging started Tue Jul 12 10:04:10 2016


Gurobi 6.5.1 (mac64) logging started Tue Jul 12 10:08:20 2016


Gurobi 6.5.1 (mac64) logging started Tue Jul 12 10:12:08 2016


Gurobi 6.5.1 (mac64) logging started Tue Jul 12 10:14:05 2016


Gurobi 6.5.1 (mac64) logging started Tue Jul 12 10:24:36 2016


Gurobi 6.5.1 (mac64) logging started Tue Jul 12 10:26:43 2016


Gurobi 6.5.1 (mac64) logging started Tue Jul 12 10:30:55 2016


Gurobi 6.5.1 (mac64) logging started Tue Jul 12 12:16:23 2016


Gurobi 6.5.1 (mac64) logging started Tue Jul 12 13:47:34 2016


Gurobi 6.5.1 (mac64) logging started Tue Jul 12 13:48:50 2016

